28
23
20
8
9
5
4
13
14
34
39
62
64
71
78
82
79
80
75
81
95
94
100
99
98
102
101
97
96
92
91
93
89
90
88
87
65
66
70
74
69
73
76
86
85
83
84
77
72
68
67
63
61
60
38
35
17
16
18
25
26
27
24
19
12
3
1
2
6
7
10
11
15
103
21
22
29
30
31
32
104
40
49
45
48
50
55
56
59
105
57
54
51
47
44
58
53
52
46
43
41
42
37
36
33
28
